n_boats=56;
n_periods=14;
capacity=[51,26,65,69,69,12,26,75,28,87,61,50,80,87,83,88,73,81,49,14,81,32,89,20,65,3,33,18,41,25,43,61,13,36,7,13,24,6,18,17,87,31,16,42,57,13,50,90,53,20,5,45,34,65,54,46];
crew=[12,15,33,22,25,6,13,18,16,29,19,27,33,18,33,44,27,16,19,2,47,9,29,10,28,1,8,10,10,11,9,20,6,19,1,6,7,2,8,7,52,18,8,9,14,4,18,42,26,10,2,15,17,23,16,22];
